benchmarks/VRPTW/TSPTW/solution/n60w20.001.txt.solution
1 7 13 39 49 10 16 52 35 57 18 20 43 59 23 33 60 8 26 14 5 53 6 45 51 31 19 48 47 32 17 24 22 3 29 42 11 30 12 28 40 44 46 36 27 9 58 4 34 55 2 25 50 38 21 37 56 15 41 61 54 
551
